Minimize
	value: tt

Subject to
tt + 1024 s_1_1 > 0.0
tt - t_1_1 - 1037.583691 s_1_1 + 13.583691 s_1_8 > -999.318700
tt + 1024 s_2_1 > 0.0
tt - t_2_1 - 1038.895917 s_2_1 + 14.895917 s_2_8 > -975.454578
tt + 1024 s_1_2 > 0.0
tt - t_1_2 - 1030.791846 s_1_2 + 6.791846 s_1_7 > -999.402200
tt + 1024 s_2_2 > 0.0
tt - t_2_2 - 1031.447958 s_2_2 + 7.447958 s_2_7 > -975.357856
tt + 1024 s_1_3 > 0.0
tt - t_1_3 - 1044.375537 s_1_3 + 20.375537 s_1_8 > -1018.450600
tt + 1024 s_2_3 > 0.0
tt - t_2_3 - 1046.343875 s_2_3 + 22.343875 s_2_8 > -1017.193311
tt + 1024 s_1_4 > 0.0
tt - t_1_4 - 1030.791846 s_1_4 + 6.791846 s_1_7 > -1014.222800
tt + 1024 s_2_4 > 0.0
tt - t_2_4 - 1031.447958 s_2_4 + 7.447958 s_2_7 > -1013.481222
tt + 1024 s_1_5 > 0.0
tt - t_1_5 - 1034.187768 s_1_5 + 10.187768 s_1_8 > -1012.906544
tt + 1024 s_2_5 > 0.0
tt - t_2_5 - 1035.171938 s_2_5 + 11.171938 s_2_8 > -1000.382978
tt + 1024 s_1_6 > 0.0
tt - t_1_6 - 1146.253222 s_1_6 + 122.253222 s_1_1 > -1020.719600
tt + 1024 s_2_6 > 0.0
tt - t_2_6 - 1158.063251 s_2_6 + 134.063251 s_2_1 > -1018.646100
tt + 1024 s_1_7 > 0.0
tt - t_1_7 - 1024.000000 s_1_7 > -980.664000
tt + 1024 s_2_7 > 0.0
tt - t_2_7 - 1024.000000 s_2_7 > -974.926100
tt + 1024 s_1_8 > 0.0
tt - t_1_8 - 1024.000000 s_1_8 > -983.520200
tt + 1024 s_2_8 > 0.0
tt - t_2_8 - 1024.000000 s_2_8 > -976.784700
s_1_1 + s_2_1  = 1
s_1_2 + s_2_2  = 1
s_1_3 + s_2_3  = 1
s_1_4 + s_2_4  = 1
s_1_5 + s_2_5  = 1
s_1_6 + s_2_6  = 1
s_1_7 + s_2_7  = 1
s_1_8 + s_2_8  = 1
s_1_1 + s_1_2 + 1024 r_1_1_2 >= 2
- s_1_1 - s_1_2 - 1024 r_1_1_2 >= -1025
t_1_1 - t_1_2 - 1024.000000 u_1_1_2 - 6.791846 s_1_2 + 6.791846 s_1_7 + 2048.000000 r_1_1_2 > -999.402200
s_2_1 + s_2_2 + 1024 r_2_1_2 >= 2
- s_2_1 - s_2_2 - 1024 r_2_1_2 >= -1025
t_2_1 - t_2_2 - 1024.000000 u_2_1_2 - 7.447958 s_2_2 + 7.447958 s_2_7 + 2048.000000 r_2_1_2 > -975.357856
s_1_1 + s_1_3 + 1024 r_1_1_3 >= 2
- s_1_1 - s_1_3 - 1024 r_1_1_3 >= -1025
t_1_1 - t_1_3 - 1024.000000 u_1_1_3 - 10.187768 s_1_3 + 10.187768 s_1_8 + 2048.000000 r_1_1_3 > -1018.450600
s_2_1 + s_2_3 + 1024 r_2_1_3 >= 2
- s_2_1 - s_2_3 - 1024 r_2_1_3 >= -1025
t_2_1 - t_2_3 - 1024.000000 u_2_1_3 - 11.171938 s_2_3 + 11.171938 s_2_8 + 2048.000000 r_2_1_3 > -1017.193311
s_1_1 + s_1_4 + 1024 r_1_1_4 >= 2
- s_1_1 - s_1_4 - 1024 r_1_1_4 >= -1025
t_1_1 - t_1_4 - 1024.000000 u_1_1_4 - 6.791846 s_1_4 + 6.791846 s_1_7 + 2048.000000 r_1_1_4 > -1014.222800
s_2_1 + s_2_4 + 1024 r_2_1_4 >= 2
- s_2_1 - s_2_4 - 1024 r_2_1_4 >= -1025
t_2_1 - t_2_4 - 1024.000000 u_2_1_4 - 7.447958 s_2_4 + 7.447958 s_2_7 + 2048.000000 r_2_1_4 > -1013.481222
s_1_1 + s_1_5 + 1024 r_1_1_5 >= 2
- s_1_1 - s_1_5 - 1024 r_1_1_5 >= -1025
t_1_1 - t_1_5 - 1024.000000 u_1_1_5 - 10.187768 s_1_5 + 10.187768 s_1_8 + 2048.000000 r_1_1_5 > -1012.906544
s_2_1 + s_2_5 + 1024 r_2_1_5 >= 2
- s_2_1 - s_2_5 - 1024 r_2_1_5 >= -1025
t_2_1 - t_2_5 - 1024.000000 u_2_1_5 - 11.171938 s_2_5 + 11.171938 s_2_8 + 2048.000000 r_2_1_5 > -1000.382978
t_1_6 - t_1_1 - 31.473146 s_1_1 + 6.791846 s_1_8 > 0.0
t_1_6 - t_2_1 - 55.993381 s_2_1 + 7.447958 s_2_8 > 0.0
t_2_6 - t_1_1 - 31.473146 s_1_1 + 6.791846 s_1_8 > 0.0
t_2_6 - t_2_1 - 55.993381 s_2_1 + 7.447958 s_2_8 > 0.0
t_1_1 - t_1_7 - 1024.000000 s_1_7 > -980.664000
t_1_1 - t_2_7 - 1024.000000 s_2_7 > -974.926100
t_2_1 - t_1_7 - 1024.000000 s_1_7 > -980.664000
t_2_1 - t_2_7 - 1024.000000 s_2_7 > -974.926100
t_1_1 - t_1_8 - 1024.000000 s_1_8 > -983.520200
t_1_1 - t_2_8 - 1024.000000 s_2_8 > -976.784700
t_2_1 - t_1_8 - 1024.000000 s_1_8 > -983.520200
t_2_1 - t_2_8 - 1024.000000 s_2_8 > -976.784700
s_1_2 + s_1_1 + 1024 r_1_1_2 >= 2
- s_1_2 - s_1_1 - 1024 r_1_1_2 >= -1025
t_1_2 - t_1_1 + 1024.000000 u_1_1_2 - 6.791846 s_1_1 + 6.791846 s_1_8 + 2048.000000 r_1_1_2 > 24.681300
s_2_2 + s_2_1 + 1024 r_2_1_2 >= 2
- s_2_2 - s_2_1 - 1024 r_2_1_2 >= -1025
t_2_2 - t_2_1 + 1024.000000 u_2_1_2 - 7.447958 s_2_1 + 7.447958 s_2_8 + 2048.000000 r_2_1_2 > 48.545422
s_1_2 + s_1_3 + 1024 r_1_2_3 >= 2
- s_1_2 - s_1_3 - 1024 r_1_2_3 >= -1025
t_1_2 - t_1_3 - 1024.000000 u_1_2_3 - 10.187768 s_1_3 + 10.187768 s_1_8 + 2048.000000 r_1_2_3 > -1018.450600
s_2_2 + s_2_3 + 1024 r_2_2_3 >= 2
- s_2_2 - s_2_3 - 1024 r_2_2_3 >= -1025
t_2_2 - t_2_3 - 1024.000000 u_2_2_3 - 11.171938 s_2_3 + 11.171938 s_2_8 + 2048.000000 r_2_2_3 > -1017.193311
s_1_2 + s_1_4 + 1024 r_1_2_4 >= 2
- s_1_2 - s_1_4 - 1024 r_1_2_4 >= -1025
t_1_2 - t_1_4 - 1024.000000 u_1_2_4 - 6.791846 s_1_4 + 6.791846 s_1_7 + 2048.000000 r_1_2_4 > -1014.222800
s_2_2 + s_2_4 + 1024 r_2_2_4 >= 2
- s_2_2 - s_2_4 - 1024 r_2_2_4 >= -1025
t_2_2 - t_2_4 - 1024.000000 u_2_2_4 - 7.447958 s_2_4 + 7.447958 s_2_7 + 2048.000000 r_2_2_4 > -1013.481222
s_1_2 + s_1_5 + 1024 r_1_2_5 >= 2
- s_1_2 - s_1_5 - 1024 r_1_2_5 >= -1025
t_1_2 - t_1_5 - 1024.000000 u_1_2_5 - 10.187768 s_1_5 + 10.187768 s_1_8 + 2048.000000 r_1_2_5 > -1012.906544
s_2_2 + s_2_5 + 1024 r_2_2_5 >= 2
- s_2_2 - s_2_5 - 1024 r_2_2_5 >= -1025
t_2_2 - t_2_5 - 1024.000000 u_2_2_5 - 11.171938 s_2_5 + 11.171938 s_2_8 + 2048.000000 r_2_2_5 > -1000.382978
t_1_6 - t_1_2 - 31.389646 s_1_2 + 6.791846 s_1_7 > 0.0
t_1_6 - t_2_2 - 56.090103 s_2_2 + 7.447958 s_2_7 > 0.0
t_2_6 - t_1_2 - 31.389646 s_1_2 + 6.791846 s_1_7 > 0.0
t_2_6 - t_2_2 - 56.090103 s_2_2 + 7.447958 s_2_7 > 0.0
t_1_2 - t_1_7 - 1024.000000 s_1_7 > -980.664000
t_1_2 - t_2_7 - 1024.000000 s_2_7 > -974.926100
t_2_2 - t_1_7 - 1024.000000 s_1_7 > -980.664000
t_2_2 - t_2_7 - 1024.000000 s_2_7 > -974.926100
s_1_2 + s_1_8 + 1024 r_1_2_8 >= 2
- s_1_2 - s_1_8 - 1024 r_1_2_8 >= -1025
t_1_2 - t_1_8 - 1024.000000 u_1_2_8 + 2048.000000 r_1_2_8 > -983.520200
s_2_2 + s_2_8 + 1024 r_2_2_8 >= 2
- s_2_2 - s_2_8 - 1024 r_2_2_8 >= -1025
t_2_2 - t_2_8 - 1024.000000 u_2_2_8 + 2048.000000 r_2_2_8 > -976.784700
s_1_3 + s_1_1 + 1024 r_1_1_3 >= 2
- s_1_3 - s_1_1 - 1024 r_1_1_3 >= -1025
t_1_3 - t_1_1 + 1024.000000 u_1_1_3 - 6.791846 s_1_1 + 6.791846 s_1_8 + 2048.000000 r_1_1_3 > 24.681300
s_2_3 + s_2_1 + 1024 r_2_1_3 >= 2
- s_2_3 - s_2_1 - 1024 r_2_1_3 >= -1025
t_2_3 - t_2_1 + 1024.000000 u_2_1_3 - 7.447958 s_2_1 + 7.447958 s_2_8 + 2048.000000 r_2_1_3 > 48.545422
s_1_3 + s_1_2 + 1024 r_1_2_3 >= 2
- s_1_3 - s_1_2 - 1024 r_1_2_3 >= -1025
t_1_3 - t_1_2 + 1024.000000 u_1_2_3 - 6.791846 s_1_2 + 6.791846 s_1_7 + 2048.000000 r_1_2_3 > 24.597800
s_2_3 + s_2_2 + 1024 r_2_2_3 >= 2
- s_2_3 - s_2_2 - 1024 r_2_2_3 >= -1025
t_2_3 - t_2_2 + 1024.000000 u_2_2_3 - 7.447958 s_2_2 + 7.447958 s_2_7 + 2048.000000 r_2_2_3 > 48.642144
s_1_3 + s_1_4 + 1024 r_1_3_4 >= 2
- s_1_3 - s_1_4 - 1024 r_1_3_4 >= -1025
t_1_3 - t_1_4 - 1024.000000 u_1_3_4 - 6.791846 s_1_4 + 6.791846 s_1_7 + 2048.000000 r_1_3_4 > -1014.222800
s_2_3 + s_2_4 + 1024 r_2_3_4 >= 2
- s_2_3 - s_2_4 - 1024 r_2_3_4 >= -1025
t_2_3 - t_2_4 - 1024.000000 u_2_3_4 - 7.447958 s_2_4 + 7.447958 s_2_7 + 2048.000000 r_2_3_4 > -1013.481222
s_1_3 + s_1_5 + 1024 r_1_3_5 >= 2
- s_1_3 - s_1_5 - 1024 r_1_3_5 >= -1025
t_1_3 - t_1_5 - 1024.000000 u_1_3_5 - 10.187768 s_1_5 + 10.187768 s_1_8 + 2048.000000 r_1_3_5 > -1012.906544
s_2_3 + s_2_5 + 1024 r_2_3_5 >= 2
- s_2_3 - s_2_5 - 1024 r_2_3_5 >= -1025
t_2_3 - t_2_5 - 1024.000000 u_2_3_5 - 11.171938 s_2_5 + 11.171938 s_2_8 + 2048.000000 r_2_3_5 > -1000.382978
t_1_6 - t_1_3 - 15.737168 s_1_3 + 10.187768 s_1_8 > 0.0
t_1_6 - t_2_3 - 17.978626 s_2_3 + 11.171938 s_2_8 > 0.0
t_2_6 - t_1_3 - 15.737168 s_1_3 + 10.187768 s_1_8 > 0.0
t_2_6 - t_2_3 - 17.978626 s_2_3 + 11.171938 s_2_8 > 0.0
t_1_3 - t_1_7 - 1024.000000 s_1_7 > -980.664000
t_1_3 - t_2_7 - 1024.000000 s_2_7 > -974.926100
t_2_3 - t_1_7 - 1024.000000 s_1_7 > -980.664000
t_2_3 - t_2_7 - 1024.000000 s_2_7 > -974.926100
t_1_3 - t_1_8 - 1024.000000 s_1_8 > -983.520200
t_1_3 - t_2_8 - 1024.000000 s_2_8 > -976.784700
t_2_3 - t_1_8 - 1024.000000 s_1_8 > -983.520200
t_2_3 - t_2_8 - 1024.000000 s_2_8 > -976.784700
s_1_4 + s_1_1 + 1024 r_1_1_4 >= 2
- s_1_4 - s_1_1 - 1024 r_1_1_4 >= -1025
t_1_4 - t_1_1 + 1024.000000 u_1_1_4 - 6.791846 s_1_1 + 6.791846 s_1_8 + 2048.000000 r_1_1_4 > 24.681300
s_2_4 + s_2_1 + 1024 r_2_1_4 >= 2
- s_2_4 - s_2_1 - 1024 r_2_1_4 >= -1025
t_2_4 - t_2_1 + 1024.000000 u_2_1_4 - 7.447958 s_2_1 + 7.447958 s_2_8 + 2048.000000 r_2_1_4 > 48.545422
s_1_4 + s_1_2 + 1024 r_1_2_4 >= 2
- s_1_4 - s_1_2 - 1024 r_1_2_4 >= -1025
t_1_4 - t_1_2 + 1024.000000 u_1_2_4 - 6.791846 s_1_2 + 6.791846 s_1_7 + 2048.000000 r_1_2_4 > 24.597800
s_2_4 + s_2_2 + 1024 r_2_2_4 >= 2
- s_2_4 - s_2_2 - 1024 r_2_2_4 >= -1025
t_2_4 - t_2_2 + 1024.000000 u_2_2_4 - 7.447958 s_2_2 + 7.447958 s_2_7 + 2048.000000 r_2_2_4 > 48.642144
s_1_4 + s_1_3 + 1024 r_1_3_4 >= 2
- s_1_4 - s_1_3 - 1024 r_1_3_4 >= -1025
t_1_4 - t_1_3 + 1024.000000 u_1_3_4 - 10.187768 s_1_3 + 10.187768 s_1_8 + 2048.000000 r_1_3_4 > 5.549400
s_2_4 + s_2_3 + 1024 r_2_3_4 >= 2
- s_2_4 - s_2_3 - 1024 r_2_3_4 >= -1025
t_2_4 - t_2_3 + 1024.000000 u_2_3_4 - 11.171938 s_2_3 + 11.171938 s_2_8 + 2048.000000 r_2_3_4 > 6.806689
s_1_4 + s_1_5 + 1024 r_1_4_5 >= 2
- s_1_4 - s_1_5 - 1024 r_1_4_5 >= -1025
t_1_4 - t_1_5 - 1024.000000 u_1_4_5 - 10.187768 s_1_5 + 10.187768 s_1_8 + 2048.000000 r_1_4_5 > -1012.906544
s_2_4 + s_2_5 + 1024 r_2_4_5 >= 2
- s_2_4 - s_2_5 - 1024 r_2_4_5 >= -1025
t_2_4 - t_2_5 - 1024.000000 u_2_4_5 - 11.171938 s_2_5 + 11.171938 s_2_8 + 2048.000000 r_2_4_5 > -1000.382978
t_1_6 - t_1_4 - 16.569046 s_1_4 + 6.791846 s_1_7 > 0.0
t_1_6 - t_2_4 - 17.966736 s_2_4 + 7.447958 s_2_7 > 0.0
t_2_6 - t_1_4 - 16.569046 s_1_4 + 6.791846 s_1_7 > 0.0
t_2_6 - t_2_4 - 17.966736 s_2_4 + 7.447958 s_2_7 > 0.0
t_1_4 - t_1_7 - 1024.000000 s_1_7 > -980.664000
t_1_4 - t_2_7 - 1024.000000 s_2_7 > -974.926100
t_2_4 - t_1_7 - 1024.000000 s_1_7 > -980.664000
t_2_4 - t_2_7 - 1024.000000 s_2_7 > -974.926100
s_1_4 + s_1_8 + 1024 r_1_4_8 >= 2
- s_1_4 - s_1_8 - 1024 r_1_4_8 >= -1025
t_1_4 - t_1_8 - 1024.000000 u_1_4_8 + 2048.000000 r_1_4_8 > -983.520200
s_2_4 + s_2_8 + 1024 r_2_4_8 >= 2
- s_2_4 - s_2_8 - 1024 r_2_4_8 >= -1025
t_2_4 - t_2_8 - 1024.000000 u_2_4_8 + 2048.000000 r_2_4_8 > -976.784700
s_1_5 + s_1_1 + 1024 r_1_1_5 >= 2
- s_1_5 - s_1_1 - 1024 r_1_1_5 >= -1025
t_1_5 - t_1_1 + 1024.000000 u_1_1_5 - 6.791846 s_1_1 + 6.791846 s_1_8 + 2048.000000 r_1_1_5 > 24.681300
s_2_5 + s_2_1 + 1024 r_2_1_5 >= 2
- s_2_5 - s_2_1 - 1024 r_2_1_5 >= -1025
t_2_5 - t_2_1 + 1024.000000 u_2_1_5 - 7.447958 s_2_1 + 7.447958 s_2_8 + 2048.000000 r_2_1_5 > 48.545422
s_1_5 + s_1_2 + 1024 r_1_2_5 >= 2
- s_1_5 - s_1_2 - 1024 r_1_2_5 >= -1025
t_1_5 - t_1_2 + 1024.000000 u_1_2_5 - 6.791846 s_1_2 + 6.791846 s_1_7 + 2048.000000 r_1_2_5 > 24.597800
s_2_5 + s_2_2 + 1024 r_2_2_5 >= 2
- s_2_5 - s_2_2 - 1024 r_2_2_5 >= -1025
t_2_5 - t_2_2 + 1024.000000 u_2_2_5 - 7.447958 s_2_2 + 7.447958 s_2_7 + 2048.000000 r_2_2_5 > 48.642144
s_1_5 + s_1_3 + 1024 r_1_3_5 >= 2
- s_1_5 - s_1_3 - 1024 r_1_3_5 >= -1025
t_1_5 - t_1_3 + 1024.000000 u_1_3_5 - 10.187768 s_1_3 + 10.187768 s_1_8 + 2048.000000 r_1_3_5 > 5.549400
s_2_5 + s_2_3 + 1024 r_2_3_5 >= 2
- s_2_5 - s_2_3 - 1024 r_2_3_5 >= -1025
t_2_5 - t_2_3 + 1024.000000 u_2_3_5 - 11.171938 s_2_3 + 11.171938 s_2_8 + 2048.000000 r_2_3_5 > 6.806689
s_1_5 + s_1_4 + 1024 r_1_4_5 >= 2
- s_1_5 - s_1_4 - 1024 r_1_4_5 >= -1025
t_1_5 - t_1_4 + 1024.000000 u_1_4_5 - 6.791846 s_1_4 + 6.791846 s_1_7 + 2048.000000 r_1_4_5 > 9.777200
s_2_5 + s_2_4 + 1024 r_2_4_5 >= 2
- s_2_5 - s_2_4 - 1024 r_2_4_5 >= -1025
t_2_5 - t_2_4 + 1024.000000 u_2_4_5 - 7.447958 s_2_4 + 7.447958 s_2_7 + 2048.000000 r_2_4_5 > 10.518778
t_1_6 - t_1_5 - 21.281224 s_1_5 + 10.187768 s_1_8 > 0.0
t_1_6 - t_2_5 - 34.788960 s_2_5 + 11.171938 s_2_8 > 0.0
t_2_6 - t_1_5 - 21.281224 s_1_5 + 10.187768 s_1_8 > 0.0
t_2_6 - t_2_5 - 34.788960 s_2_5 + 11.171938 s_2_8 > 0.0
s_1_5 + s_1_7 + 1024 r_1_5_7 >= 2
- s_1_5 - s_1_7 - 1024 r_1_5_7 >= -1025
t_1_5 - t_1_7 - 1024.000000 u_1_5_7 + 2048.000000 r_1_5_7 > -980.664000
s_2_5 + s_2_7 + 1024 r_2_5_7 >= 2
- s_2_5 - s_2_7 - 1024 r_2_5_7 >= -1025
t_2_5 - t_2_7 - 1024.000000 u_2_5_7 + 2048.000000 r_2_5_7 > -974.926100
t_1_5 - t_1_8 - 1024.000000 s_1_8 > -983.520200
t_1_5 - t_2_8 - 1024.000000 s_2_8 > -976.784700
t_2_5 - t_1_8 - 1024.000000 s_1_8 > -983.520200
t_2_5 - t_2_8 - 1024.000000 s_2_8 > -976.784700
t_1_6 - t_1_7 - 1024.000000 s_1_7 > -980.664000
t_1_6 - t_2_7 - 1024.000000 s_2_7 > -974.926100
t_2_6 - t_1_7 - 1024.000000 s_1_7 > -980.664000
t_2_6 - t_2_7 - 1024.000000 s_2_7 > -974.926100
s_1_7 + s_1_5 + 1024 r_1_5_7 >= 2
- s_1_7 - s_1_5 - 1024 r_1_5_7 >= -1025
t_1_7 - t_1_5 + 1024.000000 u_1_5_7 - 10.187768 s_1_5 + 10.187768 s_1_8 + 2048.000000 r_1_5_7 > 11.093456
s_2_7 + s_2_5 + 1024 r_2_5_7 >= 2
- s_2_7 - s_2_5 - 1024 r_2_5_7 >= -1025
t_2_7 - t_2_5 + 1024.000000 u_2_5_7 - 11.171938 s_2_5 + 11.171938 s_2_8 + 2048.000000 r_2_5_7 > 23.617022
s_1_7 + s_1_8 + 1024 r_1_7_8 >= 2
- s_1_7 - s_1_8 - 1024 r_1_7_8 >= -1025
t_1_7 - t_1_8 - 1024.000000 u_1_7_8 + 2048.000000 r_1_7_8 > -983.520200
s_2_7 + s_2_8 + 1024 r_2_7_8 >= 2
- s_2_7 - s_2_8 - 1024 r_2_7_8 >= -1025
t_2_7 - t_2_8 - 1024.000000 u_2_7_8 + 2048.000000 r_2_7_8 > -976.784700
s_1_8 + s_1_2 + 1024 r_1_2_8 >= 2
- s_1_8 - s_1_2 - 1024 r_1_2_8 >= -1025
t_1_8 - t_1_2 + 1024.000000 u_1_2_8 - 6.791846 s_1_2 + 6.791846 s_1_7 + 2048.000000 r_1_2_8 > 24.597800
s_2_8 + s_2_2 + 1024 r_2_2_8 >= 2
- s_2_8 - s_2_2 - 1024 r_2_2_8 >= -1025
t_2_8 - t_2_2 + 1024.000000 u_2_2_8 - 7.447958 s_2_2 + 7.447958 s_2_7 + 2048.000000 r_2_2_8 > 48.642144
s_1_8 + s_1_4 + 1024 r_1_4_8 >= 2
- s_1_8 - s_1_4 - 1024 r_1_4_8 >= -1025
t_1_8 - t_1_4 + 1024.000000 u_1_4_8 - 6.791846 s_1_4 + 6.791846 s_1_7 + 2048.000000 r_1_4_8 > 9.777200
s_2_8 + s_2_4 + 1024 r_2_4_8 >= 2
- s_2_8 - s_2_4 - 1024 r_2_4_8 >= -1025
t_2_8 - t_2_4 + 1024.000000 u_2_4_8 - 7.447958 s_2_4 + 7.447958 s_2_7 + 2048.000000 r_2_4_8 > 10.518778
s_1_8 + s_1_7 + 1024 r_1_7_8 >= 2
- s_1_8 - s_1_7 - 1024 r_1_7_8 >= -1025
t_1_8 - t_1_7 + 1024.000000 u_1_7_8 + 2048.000000 r_1_7_8 > 43.336000
s_2_8 + s_2_7 + 1024 r_2_7_8 >= 2
- s_2_8 - s_2_7 - 1024 r_2_7_8 >= -1025
t_2_8 - t_2_7 + 1024.000000 u_2_7_8 + 2048.000000 r_2_7_8 > 49.073900
Binary
s_1_1
s_2_1
s_1_2
s_2_2
s_1_3
s_2_3
s_1_4
s_2_4
s_1_5
s_2_5
s_1_6
s_2_6
s_1_7
s_2_7
s_1_8
s_2_8
u_1_1_2
r_1_1_2
u_2_1_2
r_2_1_2
u_1_1_3
r_1_1_3
u_2_1_3
r_2_1_3
u_1_1_4
r_1_1_4
u_2_1_4
r_2_1_4
u_1_1_5
r_1_1_5
u_2_1_5
r_2_1_5
u_1_2_3
r_1_2_3
u_2_2_3
r_2_2_3
u_1_2_4
r_1_2_4
u_2_2_4
r_2_2_4
u_1_2_5
r_1_2_5
u_2_2_5
r_2_2_5
u_1_2_8
r_1_2_8
u_2_2_8
r_2_2_8
u_1_3_4
r_1_3_4
u_2_3_4
r_2_3_4
u_1_3_5
r_1_3_5
u_2_3_5
r_2_3_5
u_1_4_5
r_1_4_5
u_2_4_5
r_2_4_5
u_1_4_8
r_1_4_8
u_2_4_8
r_2_4_8
u_1_5_7
r_1_5_7
u_2_5_7
r_2_5_7
u_1_7_8
r_1_7_8
u_2_7_8
r_2_7_8

End
